(set-info :source |printed by MathSAT|)
(declare-fun hhv_ULTIMATE.start_L26_0_Int () Int)
(declare-fun .x.665 () Int)
(declare-fun hbv_ULTIMATE.start_L21-4_1_Array_Int_Int () (Array Int Int))
(declare-fun .x.666 () (Array Int Int))
(declare-fun hhv_ULTIMATE.start_L26_2_Array_Int_Int () (Array Int Int))
(declare-fun .x.667 () (Array Int Int))
(declare-fun hhv_ULTIMATE.start_L26_3_Array_Int_Array_Int_Int () (Array Int (Array Int Int)))
(declare-fun .x.668 () (Array Int (Array Int Int)))
(declare-fun hhv_ULTIMATE.start_L26_4_Array_Int_Array_Int_Int () (Array Int (Array Int Int)))
(declare-fun .x.669 () (Array Int (Array Int Int)))
(declare-fun hhv_ULTIMATE.start_L26_5_Int () Int)
(declare-fun .x.670 () Int)
(declare-fun hhv_ULTIMATE.start_L26_6_Int () Int)
(declare-fun .x.671 () Int)
(declare-fun hhv_ULTIMATE.start_L26_7_Array_Int_Int () (Array Int Int))
(declare-fun .x.672 () (Array Int Int))
(declare-fun hhv_ULTIMATE.start_L26_8_Array_Int_Int () (Array Int Int))
(declare-fun .x.673 () (Array Int Int))
(declare-fun hhv_ULTIMATE.start_L26_9_Int () Int)
(declare-fun .x.674 () Int)
(declare-fun hhv_ULTIMATE.start_L26_10_Int () Int)
(declare-fun .x.675 () Int)
(declare-fun hbv_ULTIMATE.start_L21-4_11_Int () Int)
(declare-fun .x.676 () Int)
(declare-fun hhv_ULTIMATE.start_L26_12_Int () Int)
(declare-fun .x.677 () Int)
(declare-fun hhv_ULTIMATE.start_L26_13_Int () Int)
(declare-fun .x.678 () Int)
(declare-fun hhv_ULTIMATE.start_L26_14_Int () Int)
(declare-fun .x.679 () Int)
(declare-fun hhv_ULTIMATE.start_L26_15_Int () Int)
(declare-fun .x.680 () Int)
(declare-fun hhv_ULTIMATE.start_L26_16_Int () Int)
(declare-fun .x.681 () Int)
(declare-fun hhv_ULTIMATE.start_L26_17_Int () Int)
(declare-fun .x.682 () Int)
(declare-fun hhv_ULTIMATE.start_L26_18_Int () Int)
(declare-fun .x.683 () Int)
(declare-fun hhv_ULTIMATE.start_L26_19_Int () Int)
(declare-fun .x.684 () Int)
(declare-fun hbv_ULTIMATE.start_L21-4_20_Int () Int)
(declare-fun .x.685 () Int)
(declare-fun hhv_ULTIMATE.start_L26_21_Int () Int)
(declare-fun .x.686 () Int)
(declare-fun hbv_ULTIMATE.start_L21-4_22_Int () Int)
(declare-fun .x.687 () Int)
(declare-fun hhv_ULTIMATE.start_L26_23_Int () Int)
(declare-fun .x.688 () Int)
(declare-fun hhv_ULTIMATE.start_L26_24_Int () Int)
(declare-fun .x.689 () Int)
(declare-fun hhv_ULTIMATE.start_L26_25_Int () Int)
(declare-fun .x.690 () Int)
(declare-fun hhv_ULTIMATE.start_L26_26_Int () Int)
(declare-fun .x.691 () Int)
(declare-fun hhv_ULTIMATE.start_L26_27_Int () Int)
(declare-fun .x.692 () Int)
(declare-fun hhv_ULTIMATE.start_L26_28_Int () Int)
(declare-fun .x.693 () Int)
(declare-fun hhv_ULTIMATE.start_L26_29_Int () Int)
(declare-fun .x.694 () Int)
(declare-fun hhv_ULTIMATE.start_L26_30_Bool () Bool)
(declare-fun .x.695 () Bool)
(declare-fun .loc.5 () Bool)
(declare-fun .loc.9 () Bool)
(declare-fun .loc.6 () Bool)
(declare-fun .loc.10 () Bool)
(declare-fun .loc.7 () Bool)
(declare-fun .loc.11 () Bool)
(declare-fun .loc.8 () Bool)
(declare-fun .loc.12 () Bool)
(declare-fun hbv_ULTIMATE.start_L10_25_Int () Int)
(declare-fun hbv_ULTIMATE.start_L10_26_Int () Int)
(declare-fun hbv_ULTIMATE.start_L-1_1_Array_Int_Int () (Array Int Int))
(define-fun .def_8 () Int (! hhv_ULTIMATE.start_L26_0_Int :next |.x.665|))
(define-fun .def_10 () (Array Int Int) (! hbv_ULTIMATE.start_L21-4_1_Array_Int_Int :next |.x.666|))
(define-fun .def_12 () (Array Int Int) (! hhv_ULTIMATE.start_L26_2_Array_Int_Int :next |.x.667|))
(define-fun .def_14 () (Array Int (Array Int Int)) (! hhv_ULTIMATE.start_L26_3_Array_Int_Array_Int_Int :next |.x.668|))
(define-fun .def_16 () (Array Int (Array Int Int)) (! hhv_ULTIMATE.start_L26_4_Array_Int_Array_Int_Int :next |.x.669|))
(define-fun .def_18 () Int (! hhv_ULTIMATE.start_L26_5_Int :next |.x.670|))
(define-fun .def_20 () Int (! hhv_ULTIMATE.start_L26_6_Int :next |.x.671|))
(define-fun .def_22 () (Array Int Int) (! hhv_ULTIMATE.start_L26_7_Array_Int_Int :next |.x.672|))
(define-fun .def_24 () (Array Int Int) (! hhv_ULTIMATE.start_L26_8_Array_Int_Int :next |.x.673|))
(define-fun .def_26 () Int (! hhv_ULTIMATE.start_L26_9_Int :next |.x.674|))
(define-fun .def_28 () Int (! hhv_ULTIMATE.start_L26_10_Int :next |.x.675|))
(define-fun .def_30 () Int (! hbv_ULTIMATE.start_L21-4_11_Int :next |.x.676|))
(define-fun .def_32 () Int (! hhv_ULTIMATE.start_L26_12_Int :next |.x.677|))
(define-fun .def_34 () Int (! hhv_ULTIMATE.start_L26_13_Int :next |.x.678|))
(define-fun .def_36 () Int (! hhv_ULTIMATE.start_L26_14_Int :next |.x.679|))
(define-fun .def_38 () Int (! hhv_ULTIMATE.start_L26_15_Int :next |.x.680|))
(define-fun .def_40 () Int (! hhv_ULTIMATE.start_L26_16_Int :next |.x.681|))
(define-fun .def_42 () Int (! hhv_ULTIMATE.start_L26_17_Int :next |.x.682|))
(define-fun .def_44 () Int (! hhv_ULTIMATE.start_L26_18_Int :next |.x.683|))
(define-fun .def_46 () Int (! hhv_ULTIMATE.start_L26_19_Int :next |.x.684|))
(define-fun .def_48 () Int (! hbv_ULTIMATE.start_L21-4_20_Int :next |.x.685|))
(define-fun .def_50 () Int (! hhv_ULTIMATE.start_L26_21_Int :next |.x.686|))
(define-fun .def_52 () Int (! hbv_ULTIMATE.start_L21-4_22_Int :next |.x.687|))
(define-fun .def_54 () Int (! hhv_ULTIMATE.start_L26_23_Int :next |.x.688|))
(define-fun .def_56 () Int (! hhv_ULTIMATE.start_L26_24_Int :next |.x.689|))
(define-fun .def_58 () Int (! hhv_ULTIMATE.start_L26_25_Int :next |.x.690|))
(define-fun .def_60 () Int (! hhv_ULTIMATE.start_L26_26_Int :next |.x.691|))
(define-fun .def_62 () Int (! hhv_ULTIMATE.start_L26_27_Int :next |.x.692|))
(define-fun .def_64 () Int (! hhv_ULTIMATE.start_L26_28_Int :next |.x.693|))
(define-fun .def_66 () Int (! hhv_ULTIMATE.start_L26_29_Int :next |.x.694|))
(define-fun .def_68 () Bool (! hhv_ULTIMATE.start_L26_30_Bool :next |.x.695|))
(define-fun .def_70 () Bool (! .loc.5 :next |.loc.9|))
(define-fun .def_72 () Bool (! .loc.6 :next |.loc.10|))
(define-fun .def_74 () Bool (! .loc.7 :next |.loc.11|))
(define-fun .def_76 () Bool (! .loc.8 :next |.loc.12|))
(define-fun .def_144 () Int (! hbv_ULTIMATE.start_L10_25_Int :next |.xtv.1|))
(define-fun .def_149 () Int (! hbv_ULTIMATE.start_L10_26_Int :next |.xtv.2|))
(define-fun .def_257 () (Array Int Int) (! hbv_ULTIMATE.start_L-1_1_Array_Int_Int :next |.xtv.3|))
(define-fun .def_114 () Bool (not .def_72))
(define-fun .def_650 () Bool (and .def_70 .def_114))
(define-fun .def_651 () Bool (and .def_74 .def_650))
(define-fun .def_120 () Bool (not .def_76))
(define-fun .def_652 () Bool (and .def_120 .def_651))
(define-fun .def_644 () Bool (= .def_10 .def_12))
(define-fun .def_643 () Bool (= .def_22 .def_24))
(define-fun .def_645 () Bool (and .def_643 .def_644))
(define-fun .def_642 () Bool (= .def_18 .def_20))
(define-fun .def_646 () Bool (and .def_642 .def_645))
(define-fun .def_641 () Bool (= .def_26 .def_28))
(define-fun .def_647 () Bool (and .def_641 .def_646))
(define-fun .def_640 () Bool (= .def_14 .def_16))
(define-fun .def_648 () Bool (and .def_640 .def_647))
(define-fun .def_639 () Bool (not .def_68))
(define-fun .def_649 () Bool (and .def_639 .def_648))
(define-fun .def_653 () Bool (! (and .def_649 .def_652) :init true))
(define-fun .def_636 () Bool (= .def_28 .x.675))
(define-fun .def_634 () Bool (= .def_24 .x.673))
(define-fun .def_632 () Bool (= .def_20 .x.671))
(define-fun .def_630 () Bool (= .def_16 .x.669))
(define-fun .def_628 () Bool (= .def_8 .x.665))
(define-fun .def_627 () Bool (= .def_12 .x.667))
(define-fun .def_629 () Bool (and .def_627 .def_628))
(define-fun .def_631 () Bool (and .def_629 .def_630))
(define-fun .def_633 () Bool (and .def_631 .def_632))
(define-fun .def_635 () Bool (and .def_633 .def_634))
(define-fun .def_637 () Bool (and .def_635 .def_636))
(define-fun .def_596 () Bool (= .x.679 .x.687))
(define-fun .def_597 () Bool (or .x.695 .def_596))
(define-fun .def_587 () (Array Int Int) (store .def_10 .def_48 0))
(define-fun .def_588 () Bool (= .x.666 .def_587))
(define-fun .def_586 () Bool (= .x.687 0))
(define-fun .def_589 () Bool (and .def_586 .def_588))
(define-fun .def_590 () Bool (or .def_68 .def_589))
(define-fun .def_85 () Bool (= .def_32 .x.677))
(define-fun .def_591 () Bool (and .def_85 .def_590))
(define-fun .def_97 () Bool (= .def_46 .x.684))
(define-fun .def_592 () Bool (and .def_97 .def_591))
(define-fun .def_105 () Bool (= .def_62 .x.692))
(define-fun .def_593 () Bool (and .def_105 .def_592))
(define-fun .def_107 () Bool (= .def_64 .x.693))
(define-fun .def_594 () Bool (and .def_107 .def_593))
(define-fun .def_111 () Bool (= .def_68 .x.695))
(define-fun .def_595 () Bool (and .def_111 .def_594))
(define-fun .def_598 () Bool (and .def_595 .def_597))
(define-fun .def_599 () Bool (and .def_76 .def_598))
(define-fun .def_436 () Bool (= .x.677 0))
(define-fun .def_578 () Bool (or .def_68 .def_436))
(define-fun .def_577 () Bool (and .x.695 .def_120))
(define-fun .def_579 () Bool (and .def_577 .def_578))
(define-fun .def_122 () Bool (= .def_52 .x.687))
(define-fun .def_580 () Bool (and .def_122 .def_579))
(define-fun .def_124 () Bool (= .def_48 .x.685))
(define-fun .def_581 () Bool (and .def_124 .def_580))
(define-fun .def_126 () Bool (= .def_36 .x.679))
(define-fun .def_582 () Bool (and .def_126 .def_581))
(define-fun .def_128 () Bool (= .def_30 .x.676))
(define-fun .def_583 () Bool (and .def_128 .def_582))
(define-fun .def_130 () Bool (= .def_10 .x.666))
(define-fun .def_584 () Bool (and .def_130 .def_583))
(define-fun .def_409 () Int (* 4 .def_56))
(define-fun .def_410 () Int (+ .def_30 .def_409))
(define-fun .def_142 () (Array Int Int) (select .def_14 .def_48))
(define-fun .def_411 () Int (select .def_142 .def_410))
(define-fun .def_412 () Bool (= .x.684 .def_411))
(define-fun .def_404 () Int (* 4 .def_38))
(define-fun .def_405 () Int (+ .def_30 .def_404))
(define-fun .def_406 () Int (select .def_142 .def_405))
(define-fun .def_407 () Bool (= .x.693 .def_406))
(define-fun .def_402 () Bool (= .x.677 .x.692))
(define-fun .def_399 () Bool (<= .x.693 .x.684))
(define-fun .def_400 () Int (ite .def_399 1 0))
(define-fun .def_401 () Bool (= .x.692 .def_400))
(define-fun .def_403 () Bool (and .def_401 .def_402))
(define-fun .def_408 () Bool (and .def_403 .def_407))
(define-fun .def_413 () Bool (and .def_408 .def_412))
(define-fun .def_397 () Bool (<= 100000 .def_56))
(define-fun .def_398 () Bool (not .def_397))
(define-fun .def_414 () Bool (and .def_398 .def_413))
(define-fun .def_415 () Bool (or .def_68 .def_414))
(define-fun .def_585 () Bool (and .def_415 .def_584))
(define-fun .def_600 () Bool (or .def_585 .def_599))
(define-fun .def_103 () Bool (= .def_56 .x.689))
(define-fun .def_93 () Bool (= .def_42 .x.682))
(define-fun .def_572 () Bool (and .def_93 .def_103))
(define-fun .def_573 () Bool (and .def_70 .def_572))
(define-fun .def_574 () Bool (and .loc.10 .def_573))
(define-fun .def_575 () Bool (and .loc.12 .def_574))
(define-fun .def_222 () Bool (not .loc.9))
(define-fun .def_576 () Bool (and .def_222 .def_575))
(define-fun .def_601 () Bool (and .def_576 .def_600))
(define-fun .def_524 () Int (* (- 1) .x.689))
(define-fun .def_568 () Int (+ .def_56 .def_524))
(define-fun .def_569 () Bool (= .def_568 (- 1)))
(define-fun .def_570 () Bool (or .x.695 .def_569))
(define-fun .def_243 () Bool (and .def_85 .def_105))
(define-fun .def_244 () Bool (and .def_111 .def_243))
(define-fun .def_558 () Bool (and .loc.9 .def_244))
(define-fun .def_559 () Bool (and .def_120 .def_558))
(define-fun .def_560 () Bool (and .def_122 .def_559))
(define-fun .def_561 () Bool (and .def_124 .def_560))
(define-fun .def_562 () Bool (and .def_126 .def_561))
(define-fun .def_563 () Bool (and .def_128 .def_562))
(define-fun .def_564 () Bool (and .def_130 .def_563))
(define-fun .def_132 () Bool (not .loc.12))
(define-fun .def_565 () Bool (and .def_132 .def_564))
(define-fun .def_231 () Bool (not .loc.10))
(define-fun .def_566 () Bool (and .def_231 .def_565))
(define-fun .def_134 () Bool (not .def_70))
(define-fun .def_567 () Bool (and .def_134 .def_566))
(define-fun .def_571 () Bool (and .def_567 .def_570))
(define-fun .def_602 () Bool (or .def_571 .def_601))
(define-fun .def_332 () Bool (and .def_68 .def_85))
(define-fun .def_542 () Bool (and .def_93 .def_332))
(define-fun .def_543 () Bool (and .def_97 .def_542))
(define-fun .def_544 () Bool (and .def_103 .def_543))
(define-fun .def_545 () Bool (and .def_105 .def_544))
(define-fun .def_546 () Bool (and .def_107 .def_545))
(define-fun .def_547 () Bool (and .def_111 .def_546))
(define-fun .def_548 () Bool (and .def_76 .def_547))
(define-fun .def_549 () Bool (and .loc.9 .def_548))
(define-fun .def_550 () Bool (and .loc.12 .def_549))
(define-fun .def_551 () Bool (and .def_122 .def_550))
(define-fun .def_552 () Bool (and .def_124 .def_551))
(define-fun .def_553 () Bool (and .def_126 .def_552))
(define-fun .def_554 () Bool (and .def_128 .def_553))
(define-fun .def_555 () Bool (and .def_130 .def_554))
(define-fun .def_556 () Bool (and .def_231 .def_555))
(define-fun .def_557 () Bool (and .def_134 .def_556))
(define-fun .def_603 () Bool (or .def_557 .def_602))
(define-fun .def_522 () Bool (<= 100000 .def_38))
(define-fun .def_540 () Bool (or .def_68 .def_522))
(define-fun .def_465 () Bool (and .def_85 .def_93))
(define-fun .def_486 () Bool (and .def_97 .def_465))
(define-fun .def_487 () Bool (and .def_103 .def_486))
(define-fun .def_488 () Bool (and .def_105 .def_487))
(define-fun .def_489 () Bool (and .def_107 .def_488))
(define-fun .def_490 () Bool (and .def_111 .def_489))
(define-fun .def_530 () Bool (and .def_76 .def_490))
(define-fun .def_531 () Bool (and .loc.9 .def_530))
(define-fun .def_532 () Bool (and .loc.12 .def_531))
(define-fun .def_533 () Bool (and .def_122 .def_532))
(define-fun .def_534 () Bool (and .def_124 .def_533))
(define-fun .def_535 () Bool (and .def_126 .def_534))
(define-fun .def_536 () Bool (and .def_128 .def_535))
(define-fun .def_537 () Bool (and .def_130 .def_536))
(define-fun .def_538 () Bool (and .def_231 .def_537))
(define-fun .def_539 () Bool (and .def_134 .def_538))
(define-fun .def_541 () Bool (and .def_539 .def_540))
(define-fun .def_604 () Bool (or .def_541 .def_603))
(define-fun .def_525 () Int (+ .def_38 .def_524))
(define-fun .def_526 () Bool (= .def_525 (- 1)))
(define-fun .def_523 () Bool (not .def_522))
(define-fun .def_527 () Bool (and .def_523 .def_526))
(define-fun .def_528 () Bool (or .def_68 .def_527))
(define-fun .def_509 () Bool (and .def_105 .def_486))
(define-fun .def_510 () Bool (and .def_107 .def_509))
(define-fun .def_511 () Bool (and .def_111 .def_510))
(define-fun .def_512 () Bool (and .def_76 .def_511))
(define-fun .def_513 () Bool (and .loc.9 .def_512))
(define-fun .def_514 () Bool (and .def_122 .def_513))
(define-fun .def_515 () Bool (and .def_124 .def_514))
(define-fun .def_516 () Bool (and .def_126 .def_515))
(define-fun .def_517 () Bool (and .def_128 .def_516))
(define-fun .def_518 () Bool (and .def_130 .def_517))
(define-fun .def_519 () Bool (and .def_132 .def_518))
(define-fun .def_520 () Bool (and .def_231 .def_519))
(define-fun .def_521 () Bool (and .def_134 .def_520))
(define-fun .def_529 () Bool (and .def_521 .def_528))
(define-fun .def_605 () Bool (or .def_529 .def_604))
(define-fun .def_95 () Bool (= .def_44 .x.683))
(define-fun .def_89 () Bool (= .def_38 .x.680))
(define-fun .def_507 () Bool (and .def_89 .def_95))
(define-fun .def_508 () Bool (and .def_114 .def_507))
(define-fun .def_606 () Bool (and .def_508 .def_605))
(define-fun .def_502 () Int (* (- 1) .x.680))
(define-fun .def_503 () Int (+ .def_38 .def_502))
(define-fun .def_504 () Bool (= .def_503 (- 1)))
(define-fun .def_505 () Bool (or .def_68 .def_504))
(define-fun .def_491 () Bool (and .def_72 .def_490))
(define-fun .def_492 () Bool (and .loc.12 .def_491))
(define-fun .def_493 () Bool (and .def_222 .def_492))
(define-fun .def_494 () Bool (and .def_120 .def_493))
(define-fun .def_495 () Bool (and .def_122 .def_494))
(define-fun .def_496 () Bool (and .def_124 .def_495))
(define-fun .def_497 () Bool (and .def_126 .def_496))
(define-fun .def_498 () Bool (and .def_128 .def_497))
(define-fun .def_499 () Bool (and .def_130 .def_498))
(define-fun .def_500 () Bool (and .def_231 .def_499))
(define-fun .def_501 () Bool (and .def_134 .def_500))
(define-fun .def_506 () Bool (and .def_501 .def_505))
(define-fun .def_607 () Bool (or .def_506 .def_606))
(define-fun .def_299 () Bool (not .def_74))
(define-fun .def_608 () Bool (and .def_299 .def_607))
(define-fun .def_483 () Bool (= .x.680 0))
(define-fun .def_484 () Bool (or .def_68 .def_483))
(define-fun .def_466 () Bool (and .def_95 .def_465))
(define-fun .def_467 () Bool (and .def_97 .def_466))
(define-fun .def_468 () Bool (and .def_105 .def_467))
(define-fun .def_469 () Bool (and .def_107 .def_468))
(define-fun .def_470 () Bool (and .def_111 .def_469))
(define-fun .def_471 () Bool (and .def_70 .def_470))
(define-fun .def_472 () Bool (and .def_72 .def_471))
(define-fun .def_473 () Bool (and .def_74 .def_472))
(define-fun .def_474 () Bool (and .loc.12 .def_473))
(define-fun .def_475 () Bool (and .def_222 .def_474))
(define-fun .def_476 () Bool (and .def_120 .def_475))
(define-fun .def_477 () Bool (and .def_122 .def_476))
(define-fun .def_478 () Bool (and .def_124 .def_477))
(define-fun .def_479 () Bool (and .def_126 .def_478))
(define-fun .def_480 () Bool (and .def_128 .def_479))
(define-fun .def_481 () Bool (and .def_130 .def_480))
(define-fun .def_482 () Bool (and .def_231 .def_481))
(define-fun .def_485 () Bool (and .def_482 .def_484))
(define-fun .def_609 () Bool (or .def_485 .def_608))
(define-fun .def_333 () Bool (and .def_89 .def_332))
(define-fun .def_334 () Bool (and .def_93 .def_333))
(define-fun .def_335 () Bool (and .def_95 .def_334))
(define-fun .def_336 () Bool (and .def_97 .def_335))
(define-fun .def_337 () Bool (and .def_103 .def_336))
(define-fun .def_338 () Bool (and .def_105 .def_337))
(define-fun .def_339 () Bool (and .def_107 .def_338))
(define-fun .def_340 () Bool (and .def_111 .def_339))
(define-fun .def_453 () Bool (and .def_70 .def_340))
(define-fun .def_454 () Bool (and .def_114 .def_453))
(define-fun .def_455 () Bool (and .def_299 .def_454))
(define-fun .def_456 () Bool (and .loc.10 .def_455))
(define-fun .def_457 () Bool (and .def_222 .def_456))
(define-fun .def_458 () Bool (and .def_120 .def_457))
(define-fun .def_459 () Bool (and .def_122 .def_458))
(define-fun .def_460 () Bool (and .def_124 .def_459))
(define-fun .def_461 () Bool (and .def_126 .def_460))
(define-fun .def_462 () Bool (and .def_128 .def_461))
(define-fun .def_463 () Bool (and .def_130 .def_462))
(define-fun .def_464 () Bool (and .def_132 .def_463))
(define-fun .def_610 () Bool (or .def_464 .def_609))
(define-fun .def_451 () Bool (or .def_68 .def_397))
(define-fun .def_289 () Bool (and .def_85 .def_89))
(define-fun .def_290 () Bool (and .def_93 .def_289))
(define-fun .def_291 () Bool (and .def_95 .def_290))
(define-fun .def_292 () Bool (and .def_97 .def_291))
(define-fun .def_293 () Bool (and .def_103 .def_292))
(define-fun .def_294 () Bool (and .def_105 .def_293))
(define-fun .def_295 () Bool (and .def_107 .def_294))
(define-fun .def_296 () Bool (and .def_111 .def_295))
(define-fun .def_297 () Bool (and .def_70 .def_296))
(define-fun .def_440 () Bool (and .def_114 .def_297))
(define-fun .def_441 () Bool (and .def_299 .def_440))
(define-fun .def_442 () Bool (and .loc.10 .def_441))
(define-fun .def_443 () Bool (and .def_222 .def_442))
(define-fun .def_444 () Bool (and .def_120 .def_443))
(define-fun .def_445 () Bool (and .def_122 .def_444))
(define-fun .def_446 () Bool (and .def_124 .def_445))
(define-fun .def_447 () Bool (and .def_126 .def_446))
(define-fun .def_448 () Bool (and .def_128 .def_447))
(define-fun .def_449 () Bool (and .def_130 .def_448))
(define-fun .def_450 () Bool (and .def_132 .def_449))
(define-fun .def_452 () Bool (and .def_450 .def_451))
(define-fun .def_611 () Bool (or .def_452 .def_610))
(define-fun .def_437 () Bool (not .def_436))
(define-fun .def_438 () Bool (or .x.695 .def_437))
(define-fun .def_419 () Bool (and .def_89 .def_93))
(define-fun .def_420 () Bool (and .def_95 .def_419))
(define-fun .def_421 () Bool (and .def_103 .def_420))
(define-fun .def_422 () Bool (and .def_111 .def_421))
(define-fun .def_423 () Bool (and .def_70 .def_422))
(define-fun .def_424 () Bool (and .def_114 .def_423))
(define-fun .def_425 () Bool (and .def_299 .def_424))
(define-fun .def_426 () Bool (and .def_222 .def_425))
(define-fun .def_427 () Bool (and .def_120 .def_426))
(define-fun .def_428 () Bool (and .def_122 .def_427))
(define-fun .def_429 () Bool (and .def_124 .def_428))
(define-fun .def_430 () Bool (and .def_126 .def_429))
(define-fun .def_431 () Bool (and .def_128 .def_430))
(define-fun .def_432 () Bool (and .def_130 .def_431))
(define-fun .def_433 () Bool (and .def_415 .def_432))
(define-fun .def_434 () Bool (and .def_132 .def_433))
(define-fun .def_435 () Bool (and .def_231 .def_434))
(define-fun .def_439 () Bool (and .def_435 .def_438))
(define-fun .def_612 () Bool (or .def_439 .def_611))
(define-fun .def_382 () Bool (and .def_68 .x.695))
(define-fun .def_383 () Bool (and .def_89 .def_382))
(define-fun .def_384 () Bool (and .def_93 .def_383))
(define-fun .def_385 () Bool (and .def_95 .def_384))
(define-fun .def_386 () Bool (and .def_103 .def_385))
(define-fun .def_387 () Bool (and .def_70 .def_386))
(define-fun .def_388 () Bool (and .def_114 .def_387))
(define-fun .def_389 () Bool (and .def_299 .def_388))
(define-fun .def_390 () Bool (and .def_222 .def_389))
(define-fun .def_391 () Bool (and .def_120 .def_390))
(define-fun .def_392 () Bool (and .def_122 .def_391))
(define-fun .def_393 () Bool (and .def_124 .def_392))
(define-fun .def_394 () Bool (and .def_126 .def_393))
(define-fun .def_395 () Bool (and .def_128 .def_394))
(define-fun .def_396 () Bool (and .def_130 .def_395))
(define-fun .def_416 () Bool (and .def_396 .def_415))
(define-fun .def_417 () Bool (and .def_132 .def_416))
(define-fun .def_418 () Bool (and .def_231 .def_417))
(define-fun .def_613 () Bool (or .def_418 .def_612))
(define-fun .def_118 () Bool (not .loc.11))
(define-fun .def_614 () Bool (and .def_118 .def_613))
(define-fun .def_369 () Bool (and .def_72 .def_340))
(define-fun .def_370 () Bool (and .def_74 .def_369))
(define-fun .def_371 () Bool (and .loc.9 .def_370))
(define-fun .def_372 () Bool (and .loc.10 .def_371))
(define-fun .def_373 () Bool (and .loc.11 .def_372))
(define-fun .def_374 () Bool (and .def_120 .def_373))
(define-fun .def_375 () Bool (and .def_122 .def_374))
(define-fun .def_376 () Bool (and .def_124 .def_375))
(define-fun .def_377 () Bool (and .def_126 .def_376))
(define-fun .def_378 () Bool (and .def_128 .def_377))
(define-fun .def_379 () Bool (and .def_130 .def_378))
(define-fun .def_380 () Bool (and .def_132 .def_379))
(define-fun .def_381 () Bool (and .def_134 .def_380))
(define-fun .def_615 () Bool (or .def_381 .def_614))
(define-fun .def_236 () Bool (= .def_50 0))
(define-fun .def_367 () Bool (or .def_68 .def_236))
(define-fun .def_354 () Bool (and .def_72 .def_296))
(define-fun .def_355 () Bool (and .def_74 .def_354))
(define-fun .def_356 () Bool (and .loc.9 .def_355))
(define-fun .def_357 () Bool (and .loc.10 .def_356))
(define-fun .def_358 () Bool (and .loc.11 .def_357))
(define-fun .def_359 () Bool (and .def_120 .def_358))
(define-fun .def_360 () Bool (and .def_122 .def_359))
(define-fun .def_361 () Bool (and .def_124 .def_360))
(define-fun .def_362 () Bool (and .def_126 .def_361))
(define-fun .def_363 () Bool (and .def_128 .def_362))
(define-fun .def_364 () Bool (and .def_130 .def_363))
(define-fun .def_365 () Bool (and .def_132 .def_364))
(define-fun .def_366 () Bool (and .def_134 .def_365))
(define-fun .def_368 () Bool (and .def_366 .def_367))
(define-fun .def_616 () Bool (or .def_368 .def_615))
(define-fun .def_341 () Bool (and .def_74 .def_340))
(define-fun .def_342 () Bool (and .def_114 .def_341))
(define-fun .def_343 () Bool (and .loc.10 .def_342))
(define-fun .def_344 () Bool (and .loc.11 .def_343))
(define-fun .def_345 () Bool (and .def_222 .def_344))
(define-fun .def_346 () Bool (and .def_120 .def_345))
(define-fun .def_347 () Bool (and .def_122 .def_346))
(define-fun .def_348 () Bool (and .def_124 .def_347))
(define-fun .def_349 () Bool (and .def_126 .def_348))
(define-fun .def_350 () Bool (and .def_128 .def_349))
(define-fun .def_351 () Bool (and .def_130 .def_350))
(define-fun .def_352 () Bool (and .def_132 .def_351))
(define-fun .def_353 () Bool (and .def_134 .def_352))
(define-fun .def_617 () Bool (or .def_353 .def_616))
(define-fun .def_137 () Bool (<= 100000 .def_34))
(define-fun .def_330 () Bool (or .def_68 .def_137))
(define-fun .def_317 () Bool (and .def_74 .def_296))
(define-fun .def_318 () Bool (and .def_114 .def_317))
(define-fun .def_319 () Bool (and .loc.10 .def_318))
(define-fun .def_320 () Bool (and .loc.11 .def_319))
(define-fun .def_321 () Bool (and .def_222 .def_320))
(define-fun .def_322 () Bool (and .def_120 .def_321))
(define-fun .def_323 () Bool (and .def_122 .def_322))
(define-fun .def_324 () Bool (and .def_124 .def_323))
(define-fun .def_325 () Bool (and .def_126 .def_324))
(define-fun .def_326 () Bool (and .def_128 .def_325))
(define-fun .def_327 () Bool (and .def_130 .def_326))
(define-fun .def_328 () Bool (and .def_132 .def_327))
(define-fun .def_329 () Bool (and .def_134 .def_328))
(define-fun .def_331 () Bool (and .def_329 .def_330))
(define-fun .def_618 () Bool (or .def_331 .def_617))
(define-fun .def_87 () Bool (= .def_34 .x.678))
(define-fun .def_619 () Bool (and .def_87 .def_618))
(define-fun .def_312 () Int (* (- 1) .x.678))
(define-fun .def_313 () Int (+ .def_34 .def_312))
(define-fun .def_314 () Bool (= .def_313 (- 1)))
(define-fun .def_315 () Bool (or .def_68 .def_314))
(define-fun .def_298 () Bool (and .def_72 .def_297))
(define-fun .def_300 () Bool (and .def_298 .def_299))
(define-fun .def_301 () Bool (and .loc.11 .def_300))
(define-fun .def_302 () Bool (and .def_222 .def_301))
(define-fun .def_303 () Bool (and .def_120 .def_302))
(define-fun .def_304 () Bool (and .def_122 .def_303))
(define-fun .def_305 () Bool (and .def_124 .def_304))
(define-fun .def_306 () Bool (and .def_126 .def_305))
(define-fun .def_307 () Bool (and .def_128 .def_306))
(define-fun .def_308 () Bool (and .def_130 .def_307))
(define-fun .def_309 () Bool (and .def_132 .def_308))
(define-fun .def_310 () Bool (and .def_231 .def_309))
(define-fun .def_316 () Bool (and .def_310 .def_315))
(define-fun .def_620 () Bool (or .def_316 .def_619))
(define-fun .def_81 () Bool (= .def_22 .x.672))
(define-fun .def_78 () Bool (= .def_18 .x.670))
(define-fun .def_158 () Bool (and .def_78 .def_81))
(define-fun .def_83 () Bool (= .def_26 .x.674))
(define-fun .def_159 () Bool (and .def_83 .def_158))
(define-fun .def_91 () Bool (= .def_40 .x.681))
(define-fun .def_283 () Bool (and .def_91 .def_159))
(define-fun .def_99 () Bool (= .def_50 .x.686))
(define-fun .def_284 () Bool (and .def_99 .def_283))
(define-fun .def_101 () Bool (= .def_54 .x.688))
(define-fun .def_285 () Bool (and .def_101 .def_284))
(define-fun .def_211 () Bool (= .def_58 .x.690))
(define-fun .def_286 () Bool (and .def_211 .def_285))
(define-fun .def_213 () Bool (= .def_60 .x.691))
(define-fun .def_287 () Bool (and .def_213 .def_286))
(define-fun .def_109 () Bool (= .def_66 .x.694))
(define-fun .def_288 () Bool (and .def_109 .def_287))
(define-fun .def_621 () Bool (and .def_288 .def_620))
(define-fun .def_278 () Bool (= .x.670 0))
(define-fun .def_277 () Bool (= .x.674 0))
(define-fun .def_279 () Bool (and .def_277 .def_278))
(define-fun .def_275 () (Array Int Int) (store .def_10 0 0))
(define-fun .def_276 () Bool (= .def_257 .def_275))
(define-fun .def_280 () Bool (and .def_276 .def_279))
(define-fun .def_281 () Bool (or .def_68 .def_280))
(define-fun .def_266 () (Array Int Int) (store .def_22 .x.685 400000))
(define-fun .def_267 () Bool (= .x.672 .def_266))
(define-fun .def_262 () Int (select .def_257 .x.685))
(define-fun .def_263 () Bool (= .def_262 0))
(define-fun .def_196 () Bool (= .x.686 1))
(define-fun .def_264 () Bool (and .def_196 .def_263))
(define-fun .def_268 () Bool (and .def_264 .def_267))
(define-fun .def_260 () Bool (= .x.685 0))
(define-fun .def_261 () Bool (not .def_260))
(define-fun .def_269 () Bool (and .def_261 .def_268))
(define-fun .def_258 () (Array Int Int) (store .def_257 .x.685 1))
(define-fun .def_259 () Bool (= .x.666 .def_258))
(define-fun .def_270 () Bool (and .def_259 .def_269))
(define-fun .def_255 () Bool (<= .x.665 .x.685))
(define-fun .def_256 () Bool (not .def_255))
(define-fun .def_271 () Bool (and .def_256 .def_270))
(define-fun .def_254 () Bool (= .x.676 0))
(define-fun .def_272 () Bool (and .def_254 .def_271))
(define-fun .def_273 () Bool (or .x.695 .def_272))
(define-fun .def_245 () Bool (and .def_70 .def_244))
(define-fun .def_246 () Bool (and .def_74 .def_245))
(define-fun .def_247 () Bool (and .def_114 .def_246))
(define-fun .def_248 () Bool (and .loc.10 .def_247))
(define-fun .def_249 () Bool (and .loc.11 .def_248))
(define-fun .def_250 () Bool (and .def_222 .def_249))
(define-fun .def_251 () Bool (and .def_120 .def_250))
(define-fun .def_252 () Bool (and .def_126 .def_251))
(define-fun .def_253 () Bool (and .def_132 .def_252))
(define-fun .def_274 () Bool (and .def_253 .def_273))
(define-fun .def_282 () Bool (and .def_274 .def_281))
(define-fun .def_622 () Bool (or .def_282 .def_621))
(define-fun .def_239 () Bool (= .x.686 0))
(define-fun .def_237 () Bool (not .def_236))
(define-fun .def_234 () Bool (= .x.678 1))
(define-fun .def_238 () Bool (and .def_234 .def_237))
(define-fun .def_240 () Bool (and .def_238 .def_239))
(define-fun .def_241 () Bool (or .def_68 .def_240))
(define-fun .def_160 () Bool (and .def_85 .def_159))
(define-fun .def_204 () Bool (and .def_89 .def_160))
(define-fun .def_205 () Bool (and .def_91 .def_204))
(define-fun .def_206 () Bool (and .def_93 .def_205))
(define-fun .def_207 () Bool (and .def_95 .def_206))
(define-fun .def_208 () Bool (and .def_97 .def_207))
(define-fun .def_209 () Bool (and .def_101 .def_208))
(define-fun .def_210 () Bool (and .def_103 .def_209))
(define-fun .def_212 () Bool (and .def_210 .def_211))
(define-fun .def_214 () Bool (and .def_212 .def_213))
(define-fun .def_215 () Bool (and .def_105 .def_214))
(define-fun .def_216 () Bool (and .def_107 .def_215))
(define-fun .def_217 () Bool (and .def_109 .def_216))
(define-fun .def_218 () Bool (and .def_111 .def_217))
(define-fun .def_219 () Bool (and .def_72 .def_218))
(define-fun .def_220 () Bool (and .def_74 .def_219))
(define-fun .def_221 () Bool (and .loc.11 .def_220))
(define-fun .def_223 () Bool (and .def_221 .def_222))
(define-fun .def_224 () Bool (and .def_120 .def_223))
(define-fun .def_225 () Bool (and .def_122 .def_224))
(define-fun .def_226 () Bool (and .def_124 .def_225))
(define-fun .def_227 () Bool (and .def_126 .def_226))
(define-fun .def_228 () Bool (and .def_128 .def_227))
(define-fun .def_229 () Bool (and .def_130 .def_228))
(define-fun .def_230 () Bool (and .def_132 .def_229))
(define-fun .def_232 () Bool (and .def_230 .def_231))
(define-fun .def_233 () Bool (and .def_134 .def_232))
(define-fun .def_242 () Bool (and .def_233 .def_241))
(define-fun .def_623 () Bool (or .def_242 .def_622))
(define-fun .def_79 () Bool (= .def_14 .x.668))
(define-fun .def_624 () Bool (and .def_79 .def_623))
(define-fun .def_155 () Bool (<= .def_144 .def_149))
(define-fun .def_199 () Bool (not .def_155))
(define-fun .def_183 () Int (* 4 .x.678))
(define-fun .def_184 () Int (+ .x.676 .def_183))
(define-fun .def_186 () (Array Int Int) (select .def_14 .x.685))
(define-fun .def_193 () Int (select .def_186 .def_184))
(define-fun .def_194 () Bool (= .x.681 .def_193))
(define-fun .def_197 () Bool (and .def_194 .def_196))
(define-fun .def_187 () Int (+ .def_184 (- 4)))
(define-fun .def_188 () Int (select .def_186 .def_187))
(define-fun .def_189 () (Array Int Int) (store .def_186 .def_184 .def_188))
(define-fun .def_190 () (Array Int Int) (store .def_189 .def_187 .x.681))
(define-fun .def_191 () (Array Int (Array Int Int)) (store .def_14 .x.685 .def_190))
(define-fun .def_192 () Bool (= .x.668 .def_191))
(define-fun .def_198 () Bool (and .def_192 .def_197))
(define-fun .def_200 () Bool (and .def_198 .def_199))
(define-fun .def_201 () Bool (or .x.695 .def_200))
(define-fun .def_161 () Bool (and .def_87 .def_160))
(define-fun .def_162 () Bool (and .def_89 .def_161))
(define-fun .def_163 () Bool (and .def_93 .def_162))
(define-fun .def_164 () Bool (and .def_95 .def_163))
(define-fun .def_165 () Bool (and .def_97 .def_164))
(define-fun .def_166 () Bool (and .def_103 .def_165))
(define-fun .def_167 () Bool (and .def_105 .def_166))
(define-fun .def_168 () Bool (and .def_107 .def_167))
(define-fun .def_169 () Bool (and .def_111 .def_168))
(define-fun .def_170 () Bool (and .def_74 .def_169))
(define-fun .def_171 () Bool (and .def_114 .def_170))
(define-fun .def_172 () Bool (and .loc.9 .def_171))
(define-fun .def_173 () Bool (and .loc.10 .def_172))
(define-fun .def_174 () Bool (and .def_118 .def_173))
(define-fun .def_175 () Bool (and .def_120 .def_174))
(define-fun .def_176 () Bool (and .def_122 .def_175))
(define-fun .def_177 () Bool (and .def_124 .def_176))
(define-fun .def_178 () Bool (and .def_126 .def_177))
(define-fun .def_179 () Bool (and .def_128 .def_178))
(define-fun .def_180 () Bool (and .def_130 .def_179))
(define-fun .def_181 () Bool (and .def_132 .def_180))
(define-fun .def_182 () Bool (and .def_134 .def_181))
(define-fun .def_202 () Bool (and .def_182 .def_201))
(define-fun .def_140 () Int (* 4 .def_34))
(define-fun .def_141 () Int (+ .def_30 .def_140))
(define-fun .def_147 () Int (+ .def_141 (- 4)))
(define-fun .def_148 () Int (select .def_142 .def_147))
(define-fun .def_150 () Bool (= .def_148 .def_149))
(define-fun .def_143 () Int (select .def_142 .def_141))
(define-fun .def_145 () Bool (= .def_143 .def_144))
(define-fun .def_151 () Bool (and .def_145 .def_150))
(define-fun .def_138 () Bool (not .def_137))
(define-fun .def_152 () Bool (and .def_138 .def_151))
(define-fun .def_153 () Bool (or .def_68 .def_152))
(define-fun .def_203 () Bool (and .def_153 .def_202))
(define-fun .def_625 () Bool (or .def_203 .def_624))
(define-fun .def_156 () Bool (or .x.695 .def_155))
(define-fun .def_80 () Bool (and .def_78 .def_79))
(define-fun .def_82 () Bool (and .def_80 .def_81))
(define-fun .def_84 () Bool (and .def_82 .def_83))
(define-fun .def_86 () Bool (and .def_84 .def_85))
(define-fun .def_88 () Bool (and .def_86 .def_87))
(define-fun .def_90 () Bool (and .def_88 .def_89))
(define-fun .def_92 () Bool (and .def_90 .def_91))
(define-fun .def_94 () Bool (and .def_92 .def_93))
(define-fun .def_96 () Bool (and .def_94 .def_95))
(define-fun .def_98 () Bool (and .def_96 .def_97))
(define-fun .def_100 () Bool (and .def_98 .def_99))
(define-fun .def_102 () Bool (and .def_100 .def_101))
(define-fun .def_104 () Bool (and .def_102 .def_103))
(define-fun .def_106 () Bool (and .def_104 .def_105))
(define-fun .def_108 () Bool (and .def_106 .def_107))
(define-fun .def_110 () Bool (and .def_108 .def_109))
(define-fun .def_112 () Bool (and .def_110 .def_111))
(define-fun .def_113 () Bool (and .def_74 .def_112))
(define-fun .def_115 () Bool (and .def_113 .def_114))
(define-fun .def_116 () Bool (and .loc.9 .def_115))
(define-fun .def_117 () Bool (and .loc.10 .def_116))
(define-fun .def_119 () Bool (and .def_117 .def_118))
(define-fun .def_121 () Bool (and .def_119 .def_120))
(define-fun .def_123 () Bool (and .def_121 .def_122))
(define-fun .def_125 () Bool (and .def_123 .def_124))
(define-fun .def_127 () Bool (and .def_125 .def_126))
(define-fun .def_129 () Bool (and .def_127 .def_128))
(define-fun .def_131 () Bool (and .def_129 .def_130))
(define-fun .def_133 () Bool (and .def_131 .def_132))
(define-fun .def_135 () Bool (and .def_133 .def_134))
(define-fun .def_154 () Bool (and .def_135 .def_153))
(define-fun .def_157 () Bool (and .def_154 .def_156))
(define-fun .def_626 () Bool (or .def_157 .def_625))
(define-fun .def_638 () Bool (! (and .def_626 .def_637) :trans true))
(define-fun .def_654 () Bool (and .def_72 .def_134))
(define-fun .def_655 () Bool (and .def_299 .def_654))
(define-fun .def_656 () Bool (and .def_76 .def_655))
(define-fun .def_657 () Bool (and .def_68 .def_656))
(define-fun .def_658 () Bool (! (not .def_657) :invar-property 0))
(assert true)
